data/CVRPLIB/Vrp-Set-XML100/instances/XML100_1111_12.vrp
NAME : XML100_1111_12
COMMENT : Generated by Queiroga, Sadykov, Uchoa, and Vidal (2021)
TYPE : CVRP
DIMENSION : 101
EDGE_WEIGHT_TYPE : EUC_2D
CAPACITY : 4
NODE_COORD_SECTION
1    667  142 
2    40   619 
3    727  968 
4    749  912 
5    222  427 
6    364  189 
7    771  342 
8    589  901 
9    238  327 
10   209  282 
11   435  980 
12   944  7   
13   760  660 
14   984  999 
15   701  394 
16   285  255 
17   131  887 
18   935  365 
19   761  418 
20   220  919 
21   171  816 
22   832  640 
23   102  550 
24   28   823 
25   347  368 
26   356  363 
27   560  625 
28   363  511 
29   291  874 
30   229  527 
31   58   819 
32   509  91  
33   353  312 
34   29   488 
35   6    268 
36   934  689 
37   246  407 
38   360  279 
39   113  235 
40   420  241 
41   855  832 
42   843  18  
43   515  696 
44   501  698 
45   690  674 
46   430  519 
47   790  580 
48   145  440 
49   920  962 
50   558  661 
51   384  30  
52   379  98  
53   112  423 
54   388  772 
55   337  405 
56   201  432 
57   481  956 
58   988  947 
59   607  843 
60   141  90  
61   904  798 
62   705  214 
63   274  811 
64   444  179 
65   241  8   
66   477  627 
67   691  602 
68   323  685 
69   74   687 
70   60   915 
71   622  163 
72   697  51  
73   178  696 
74   400  419 
75   135  312 
76   322  788 
77   596  477 
78   312  696 
79   504  23  
80   683  694 
81   668  341 
82   535  789 
83   810  500 
84   10   375 
85   167  925 
86   162  465 
87   262  947 
88   344  637 
89   278  944 
90   52   459 
91   250  460 
92   476  959 
93   17   710 
94   542  622 
95   736  563 
96   124  534 
97   162  906 
98   977  664 
99   895  162 
100  898  911 
101  36   276 
DEMAND_SECTION
1    0   
2    1   
3    1   
4    1   
5    1   
6    1   
7    1   
8    1   
9    1   
10   1   
11   1   
12   1   
13   1   
14   1   
15   1   
16   1   
17   1   
18   1   
19   1   
20   1   
21   1   
22   1   
23   1   
24   1   
25   1   
26   1   
27   1   
28   1   
29   1   
30   1   
31   1   
32   1   
33   1   
34   1   
35   1   
36   1   
37   1   
38   1   
39   1   
40   1   
41   1   
42   1   
43   1   
44   1   
45   1   
46   1   
47   1   
48   1   
49   1   
50   1   
51   1   
52   1   
53   1   
54   1   
55   1   
56   1   
57   1   
58   1   
59   1   
60   1   
61   1   
62   1   
63   1   
64   1   
65   1   
66   1   
67   1   
68   1   
69   1   
70   1   
71   1   
72   1   
73   1   
74   1   
75   1   
76   1   
77   1   
78   1   
79   1   
80   1   
81   1   
82   1   
83   1   
84   1   
85   1   
86   1   
87   1   
88   1   
89   1   
90   1   
91   1   
92   1   
93   1   
94   1   
95   1   
96   1   
97   1   
98   1   
99   1   
100  1   
101  1   
DEPOT_SECTION
1
-1
EOF
