data/CVRPLIB/Vrp-Set-XML100/solutions/XML100_1111_12.sol
Route #1: 70 31 78 71
Route #2: 44 79 12 21
Route #3: 81 56 91 10
Route #4: 6 18 14 80
Route #5: 41 11 98 61
Route #6: 52 89 33 83
Route #7: 97 35 60 40
Route #8: 39 37 5 63
Route #9: 20 16 96 84
Route #10: 50 64 59 51
Route #11: 73 54 24 25
Route #12: 38 34 100 74
Route #13: 90 55 4 36
Route #14: 99 48 13 57
Route #15: 22 1 92 68
Route #16: 94 46 82 17
Route #17: 19 86 88 28
Route #18: 32 8 9 15
Route #19: 3 2 7 58
Route #20: 77 62 75 53
Route #21: 49 42 43 65
Route #22: 45 67 87 27
Route #23: 66 26 93 76
Route #24: 69 23 30 72
Route #25: 47 85 95 29
Cost 33059
